MARKOV
9
2 2 2 2 2 2 2 2 2 

18

1 0 
1 1 
3 0 1 2 
3 0 1 3 
3 2 3 4 
3 2 3 5 
3 4 5 6 
3 4 5 7 
3 6 7 8 

 


 

1 0
1 1
1 2
1 3
1 4
1 5
1 6
1 7
1 8


2	0.405603367	0.594396633						
2	0.65345213	0.34654787						
8	0.99	0.01	0.99	0.01	0.99	0.01	0.99	0.01
8	0.99	0.01	0.01	0.99	0.01	0.99	0.01	0.99
8	0.99	0.01	0.01	0.99	0.01	0.99	0.99	0.01
8	0.99	0.01	0.01	0.99	0.01	0.99	0.01	0.99
8	0.01	0.99	0.99	0.01	0.01	0.99	0.99	0.01
8	0.01	0.99	0.01	0.99	0.01	0.99	0.99	0.01
8	0.01	0.99	0.99	0.01	0.01	0.99	0.99	0.01




2 1 1
2 1 1
2 1 1
2 1 1
2 1 1
2 1 1
2 1 1
2 1 1
2 0 1